NAME : berlin52-R-3-1-b.9419.tour
COMMENT : Length = 9419
COMMENT : Found by LKH-3 [Keld Helsgaun] Tue Jul 30 13:14:23 2024
TYPE : TOUR
DIMENSION : 52
TOUR_SECTION
1
36
39
40
15
6
24
48
46
16
29
30
2
7
42
21
31
18
19
41
8
43
33
51
52
13
14
47
26
27
28
11
12
25
4
5
38
37
35
34
44
50
20
23
17
3
9
10
45
32
49
22
-1
EOF
